(set-logic HORN)
(declare-fun state (Int (Array Int Int) (Array Int Int) (Array Int Int) (Array Int Int) Int Int (Array Int Int) (Array Int Int) Int Int Int Int Int Int Int Int Int Int Int Int Int Int Int Int Int Int Int Int Int Int Int Int Int Int Int Int Int Int Int Int Bool Bool Bool Bool Bool Bool (Array Int Int)) Bool)
(assert (forall ((|A_33| Int) (|B_33| (Array Int Int)) (|C_33| (Array Int Int)) (|D_33| (Array Int Int)) (|E_33| (Array Int Int)) (|F_33| Int) (|G_33| Int) (|H_33| (Array Int Int)) (|I_33| (Array Int Int)) (|J_33| Int) (|K_33| Int) (|L_33| Int) (|M_33| Int) (|N_33| Int) (|O_33| Int) (|P_33| Int) (|Q_33| Int) (|R_33| Int) (|S_33| Int) (|T_33| Int) (|U_33| Int) (|V_33| Int) (|W_33| Int) (|X_33| Int) (|Y_33| Int) (|Z_33| Int) (|A1_33| Int) (|B1_33| Int) (|C1_33| Int) (|D1_33| Int) (|E1_33| Int) (|F1_33| Int) (|G1_33| Int) (|H1_33| Int) (|I1_33| Int) (|J1_33| Int) (|K1_33| Int) (|L1_33| Int) (|M1_33| Int) (|N1_33| Int) (|O1_33| Int) (|Q1_19| Bool) (|.loc.6| Bool) (|.loc.7| Bool) (|.loc.8| Bool) (|.loc.9| Bool) (|.loc.10| Bool) (|Q1_0| (Array Int Int)) (|.x.1365| Int) (|.x.1363| (Array Int Int)) (|.x.1361| Int) (|.x.1359| (Array Int Int)) (|.x.1355| Int) (|.x.1357| (Array Int Int)) (|.x.1356| (Array Int Int)) (|P1_33| Bool) (|.x.1367| Int) (|.x.1368| Int) (|.x.1371| Int) (|.x.1376| Int) (|.x.1377| Int) (|.x.1378| Int) (|.x.1379| Int) (|.x.1383| Int) (|.x.1385| Int) (|.x.1386| Int) (|.x.1389| Int) (|.x.1392| Int) (|.loc.15| Bool) (|.loc.12| Bool) (|.loc.13| Bool) (|.loc.14| Bool) (|.x.1381| Int) (|.x.1370| Int) (|.x.1382| Int) (|.x.1393| Int) (|.loc.11| Bool) (|.x.1387| Int) (|.x.1380| Int) (|.x.1384| Int) (|.x.1358| (Array Int Int)) (|.x.1388| Int) (|.x.1391| Int) (|.x.1390| Int) (|.x.1374| Int) (|.x.1394| Int) (|.x.1375| Int) (|.x.1395| Int) (|.x.1372| Int) (|.x.1373| Int) (|.x.1366| Int) (|.x.1369| Int) (|.x.1364| Int) (|.x.1360| Int) (|.x.1362| (Array Int Int)) (|.xtv.1| (Array Int Int))) (=> (and (and (and (and (and .loc.6 (not .loc.7)) (not .loc.8)) (not .loc.9)) (not .loc.10)) (and (and (and (and (and (= D_33 E_33) (not Q1_19)) (= J_33 K_33)) (= F_33 G_33)) (= H_33 I_33)) (= B_33 C_33))) (state |A_33| |B_33| |C_33| |D_33| |E_33| |F_33| |G_33| |H_33| |I_33| |J_33| |K_33| |L_33| |M_33| |N_33| |O_33| |P_33| |Q_33| |R_33| |S_33| |T_33| |U_33| |V_33| |W_33| |X_33| |Y_33| |Z_33| |A1_33| |B1_33| |C1_33| |D1_33| |E1_33| |F1_33| |G1_33| |H1_33| |I1_33| |J1_33| |K1_33| |L1_33| |M1_33| |N1_33| |O1_33| |Q1_19| |.loc.6| |.loc.7| |.loc.8| |.loc.9| |.loc.10| |Q1_0|))))
(assert (forall ((|A_33| Int) (|B_33| (Array Int Int)) (|C_33| (Array Int Int)) (|D_33| (Array Int Int)) (|E_33| (Array Int Int)) (|F_33| Int) (|G_33| Int) (|H_33| (Array Int Int)) (|I_33| (Array Int Int)) (|J_33| Int) (|K_33| Int) (|L_33| Int) (|M_33| Int) (|N_33| Int) (|O_33| Int) (|P_33| Int) (|Q_33| Int) (|R_33| Int) (|S_33| Int) (|T_33| Int) (|U_33| Int) (|V_33| Int) (|W_33| Int) (|X_33| Int) (|Y_33| Int) (|Z_33| Int) (|A1_33| Int) (|B1_33| Int) (|C1_33| Int) (|D1_33| Int) (|E1_33| Int) (|F1_33| Int) (|G1_33| Int) (|H1_33| Int) (|I1_33| Int) (|J1_33| Int) (|K1_33| Int) (|L1_33| Int) (|M1_33| Int) (|N1_33| Int) (|O1_33| Int) (|Q1_19| Bool) (|.loc.6| Bool) (|.loc.7| Bool) (|.loc.8| Bool) (|.loc.9| Bool) (|.loc.10| Bool) (|Q1_0| (Array Int Int)) (|.x.1365| Int) (|.x.1363| (Array Int Int)) (|.x.1361| Int) (|.x.1359| (Array Int Int)) (|.x.1355| Int) (|.x.1357| (Array Int Int)) (|.x.1356| (Array Int Int)) (|P1_33| Bool) (|.x.1367| Int) (|.x.1368| Int) (|.x.1371| Int) (|.x.1376| Int) (|.x.1377| Int) (|.x.1378| Int) (|.x.1379| Int) (|.x.1383| Int) (|.x.1385| Int) (|.x.1386| Int) (|.x.1389| Int) (|.x.1392| Int) (|.loc.15| Bool) (|.loc.12| Bool) (|.loc.13| Bool) (|.loc.14| Bool) (|.x.1381| Int) (|.x.1370| Int) (|.x.1382| Int) (|.x.1393| Int) (|.loc.11| Bool) (|.x.1387| Int) (|.x.1380| Int) (|.x.1384| Int) (|.x.1358| (Array Int Int)) (|.x.1388| Int) (|.x.1391| Int) (|.x.1390| Int) (|.x.1374| Int) (|.x.1394| Int) (|.x.1375| Int) (|.x.1395| Int) (|.x.1372| Int) (|.x.1373| Int) (|.x.1366| Int) (|.x.1369| Int) (|.x.1364| Int) (|.x.1360| Int) (|.x.1362| (Array Int Int)) (|.xtv.1| (Array Int Int))) (=> (and (state |A_33| |B_33| |C_33| |D_33| |E_33| |F_33| |G_33| |H_33| |I_33| |J_33| |K_33| |L_33| |M_33| |N_33| |O_33| |P_33| |Q_33| |R_33| |S_33| |T_33| |U_33| |V_33| |W_33| |X_33| |Y_33| |Z_33| |A1_33| |B1_33| |C1_33| |D1_33| |E1_33| |F1_33| |G1_33| |H1_33| |I1_33| |J1_33| |K1_33| |L1_33| |M1_33| |N1_33| |O1_33| |Q1_19| |.loc.6| |.loc.7| |.loc.8| |.loc.9| |.loc.10| |Q1_0|) (let ((.def_58 (not .loc.7))) (let ((.def_60 (not .loc.8))) (let ((.def_62 (not .loc.9))) (let ((.def_97 (= B_33 .x.1356))) (let ((.def_101 (= M_33 .x.1367))) (let ((.def_104 (= N_33 .x.1368))) (let ((.def_107 (= Q_33 .x.1371))) (let ((.def_110 (= V_33 .x.1376))) (let ((.def_113 (= W_33 .x.1377))) (let ((.def_116 (= X_33 .x.1378))) (let ((.def_119 (= Y_33 .x.1379))) (let ((.def_122 (= C1_33 .x.1383))) (let ((.def_125 (= E1_33 .x.1385))) (let ((.def_128 (= F1_33 .x.1386))) (let ((.def_131 (= I1_33 .x.1389))) (let ((.def_134 (= L1_33 .x.1392))) (let ((.def_136 (not .loc.6))) (let ((.def_151 (= Q1_19 P1_33))) (let ((.def_158 (not .loc.12))) (let ((.def_161 (not .loc.13))) (let ((.def_164 (not .loc.14))) (let ((.def_167 (= P_33 0))) (let ((.def_170 (and .def_104 (and .def_97 .def_101)))) (let ((.def_180 (and .def_134 (and .def_131 (and .def_128 (and .def_125 (and .def_122 (and .def_119 (and .def_116 (and .def_113 (and .def_110 (and .def_107 .def_170)))))))))))) (let ((.def_186 (not .loc.15))) (let ((.def_192 (= A1_33 .x.1381))) (let ((.def_194 (= P_33 .x.1370))) (let ((.def_197 (= B1_33 .x.1382))) (let ((.def_200 (= M1_33 .x.1393))) (let ((.def_203 (not .loc.11))) (let ((.def_210 (select D_33 F1_33))) (let ((.def_215 (select D_33 E1_33))) (let ((.def_219 (<= 100000 G1_33))) (let ((.def_241 (= G1_33 .x.1387))) (let ((.def_243 (= Z_33 .x.1380))) (let ((.def_254 (and .def_107 (and .def_170 .def_194)))) (let ((.def_258 (and .def_119 (and .def_116 (and .def_113 (and .def_110 .def_254)))))) (let ((.def_284 (and .def_128 (and .def_125 (and .def_122 (and .def_197 (and .def_192 (and .def_243 .def_258)))))))) (let ((.def_300 (and Q1_19 .def_97))) (let ((.def_318 (and .def_200 (and .def_134 (and .def_131 (and .def_241 (and .def_128 (and .def_125 (and .def_122 (and .def_197 (and .def_192 (and .def_243 (and .def_119 (and .def_116 (and .def_113 (and .def_110 (and .def_107 (and .def_194 (and .def_104 (and .def_101 .def_300)))))))))))))))))))) (let ((.def_331 (and .def_241 .def_284))) (let ((.def_334 (and .def_200 (and .def_134 (and .def_131 .def_331))))) (let ((.def_360 (and .def_136 (and .loc.9 (and .loc.7 .def_334))))) (let ((.def_368 (<= 100000 D1_33))) (let ((.def_369 (or Q1_19 .def_368))) (let ((.def_373 (= D1_33 .x.1384))) (let ((.def_375 (= D_33 .x.1358))) (let ((.def_378 (= H1_33 .x.1388))) (let ((.def_381 (= K1_33 .x.1391))) (let ((.def_384 (* 4 D1_33))) (let ((.def_386 (select D_33 X_33))) (let ((.def_392 (not .def_368))) (let ((.def_405 (or P1_33 (= (+ D1_33 (* (- 1) .x.1384)) (- 1))))) (let ((.def_415 (and .def_107 (and .def_194 (and .def_104 (and .def_101 (and .def_97 .def_375))))))) (let ((.def_423 (and .def_122 (and .def_197 (and .def_192 (and .def_243 (and .def_119 (and .def_116 (and .def_113 (and .def_110 .def_415)))))))))) (let ((.def_432 (and .def_200 (and .def_134 (and .def_381 (and .def_131 (and .def_378 (and .def_241 (and .def_128 (and .def_125 (and .def_373 .def_423))))))))))) (let ((.def_449 (and .def_107 (and .def_194 (and .def_104 (and .def_101 (and .def_300 .def_375))))))) (let ((.def_466 (and .def_200 (and .def_134 (and .def_381 (and .def_131 (and .def_378 (and .def_241 (and .def_128 (and .def_125 (and .def_373 (and .def_122 (and .def_197 (and .def_192 (and .def_243 (and .def_119 (and .def_116 (and .def_113 (and .def_110 .def_449))))))))))))))))))) (let ((.def_497 (or Q1_19 (= .x.1384 0)))) (let ((.def_524 (= J1_33 .x.1390))) (let ((.def_526 (= T_33 .x.1374))) (let ((.def_530 (select D_33 N_33))) (let ((.def_555 (and .def_415 .def_526))) (let ((.def_563 (and .def_122 (and .def_197 (and .def_192 (and .def_243 (and .def_119 (and .def_116 (and .def_113 (and .def_110 .def_555)))))))))) (let ((.def_585 (and .def_449 .def_526))) (let ((.def_638 (= N1_33 .x.1394))) (let ((.def_640 (= U_33 .x.1375))) (let ((.def_644 (select D_33 W_33))) (let ((.def_651 (and .def_254 .def_526))) (let ((.def_690 (and .def_122 (and .def_197 (and .def_192 (and .def_243 (and .def_119 (and .def_116 (and .def_113 (and .def_110 (and .def_555 .def_640))))))))))) (let ((.def_768 (= O1_33 .x.1395))) (let ((.def_770 (= R_33 .x.1372))) (let ((.def_823 (and .def_122 (and .def_197 (and .def_192 (and .def_243 (and .def_119 (and .def_116 (and .def_113 (and .def_110 (and .def_640 (and .def_526 (and .def_415 .def_770))))))))))))) (let ((.def_881 (<= 100000 O_33))) (let ((.def_1032 (store Q1_0 .x.1386 1))) (let ((.def_1033 (store .def_1032 .x.1377 1))) (let ((.def_1037 (store .def_1033 .x.1368 1))) (let ((.def_1038 (store .def_1037 .x.1378 1))) (and (and (not .loc.10) (and (= K_33 .x.1365) (and (= I_33 .x.1363) (and (= G_33 .x.1361) (and (= E_33 .x.1359) (and (= A_33 .x.1355) (= C_33 .x.1357))))))) (or (and (or (and (or (or (or (or (and (or (or (or (or (and (or (or (or (or (and (or (or (or (or (or (or (and (or (or (or (or (or (or (and (or (and (or (and (or (and (and (and (and (and (and (and (and (and (and (and (and (and (and .def_97 P1_33) .def_101) .def_104) .def_107) .def_110) .def_113) .def_116) .def_119) .def_122) .def_125) .def_128) .def_131) .def_134) .def_136) (and (or Q1_19 (and (= .x.1392 0) (= .x.1356 (store (store (store (store (store B_33 F1_33 0) W_33 0) N_33 0) X_33 0) E1_33 0)))) (and (and .loc.6 (or P1_33 (= .x.1379 .x.1392))) .def_151))) (and (and (and (and .loc.7 .loc.15) .def_158) .def_161) .def_164)) (and (or Q1_19 .def_167) (and .def_58 (and (and .def_151 (and .loc.14 (and .loc.13 (and .loc.12 (and .loc.6 .def_180))))) .def_186)))) (and (and (and (and .def_192 .def_194) .def_197) .def_200) .def_203)) (and (or Q1_19 (and (= .x.1370 .x.1393) (and (= .x.1381 (select .def_210 (+ (* 4 G1_33) I1_33))) (and (= .x.1382 (select .def_215 (+ Q_33 (* 4 G1_33)))) (and (not .def_219) (= .x.1393 (ite (= .x.1381 .x.1382) 1 0))))))) (and .def_58 (and .def_186 (and .def_151 (and .def_158 (and .loc.14 (and .loc.13 (and .loc.11 (and .def_136 .def_180)))))))))) (and .loc.9 (and .loc.8 (and .def_241 .def_243)))) (and (or P1_33 (= (+ G1_33 (* (- 1) .x.1387)) (- 1))) (and .def_60 (and .def_62 (and .def_58 (and .def_186 (and .def_151 (and .def_158 (and .def_203 (and .loc.14 (and .loc.13 (and .def_136 (and .def_200 (and .def_134 (and .def_131 (and .def_128 (and .def_125 (and .def_122 .def_258)))))))))))))))))) (and (or Q1_19 (= .x.1387 0)) (and .def_60 (and .def_186 (and .def_151 (and .def_158 (and .def_203 (and .loc.14 (and .loc.13 (and .loc.9 (and .loc.7 (and .loc.6 (and .def_200 (and .def_134 (and .def_131 .def_284))))))))))))))) (and .def_58 (and .def_186 (and .def_151 (and .loc.14 (and .loc.13 (and .loc.12 (and .loc.11 (and .def_136 (and .loc.9 (and .loc.8 .def_318))))))))))) (and (or Q1_19 .def_219) (and .def_58 (and .def_186 (and .def_151 (and .loc.14 (and .loc.13 (and .loc.12 (and .loc.11 (and .def_136 (and .loc.9 (and .loc.8 .def_334)))))))))))) (and .def_60 (and .def_186 (and .def_151 (and .def_161 (and .loc.14 (and .loc.12 (and .loc.11 (and .def_136 (and .loc.9 (and .loc.7 .def_318))))))))))) (and (and .def_60 (and .def_186 (and .def_151 (and .def_161 (and .loc.14 (and .loc.12 (and .loc.11 .def_360))))))) .def_369)) (and (and (and .def_373 .def_375) .def_378) .def_381)) (and (or Q1_19 (and (= .x.1358 (store D_33 E1_33 (store .def_215 (+ Q_33 .def_384) (select .def_386 (+ C1_33 .def_384))))) .def_392)) (and (and .def_60 (and .def_186 (and .def_151 (and .def_161 (and .def_203 (and .loc.14 (and .loc.12 .def_360))))))) .def_405))) (and (or Q1_19 (not .def_167)) (and .def_58 (and .def_186 (and .def_151 (and .def_164 (and .def_161 (and .def_158 (and .def_203 (and .loc.9 (and .loc.8 (and .loc.6 .def_432)))))))))))) (and .def_186 (and .def_151 (and .def_164 (and .def_161 (and .def_158 (and .def_203 (and .def_136 (and .loc.9 (and .loc.8 (and .loc.7 .def_466))))))))))) (and (and .def_60 (and .def_58 (and .def_186 (and .def_151 (and .def_161 (and .def_203 (and .loc.14 (and .loc.12 (and .loc.9 (and .loc.6 (and .def_200 (and .def_134 (and .def_381 (and .def_131 (and .def_378 (and .def_241 (and .def_128 (and .def_125 .def_423)))))))))))))))))) .def_497)) (and .def_60 (and .def_58 (and .def_186 (and .def_151 (and .def_161 (and .def_158 (and .loc.14 (and .loc.11 (and .def_136 (and .loc.9 .def_466))))))))))) (and .def_369 (and .def_60 (and .def_58 (and .def_186 (and .def_151 (and .def_161 (and .def_158 (and .loc.14 (and .loc.11 (and .def_136 (and .loc.9 .def_432)))))))))))) (and .def_524 .def_526)) (and (or Q1_19 (and .def_392 (= .x.1358 (store D_33 X_33 (store .def_386 (+ C1_33 .def_384) (select .def_530 (+ V_33 .def_384))))))) (and .def_405 (and .def_60 (and .def_58 (and .def_186 (and .def_151 (and .def_161 (and .def_158 (and .def_203 (and .loc.14 (and .def_136 (and .loc.9 (and .def_200 (and .def_134 (and .def_381 (and .def_131 (and .def_331 .def_378)))))))))))))))))) (and .def_497 (and .def_62 (and .def_186 (and .def_151 (and .def_161 (and .def_158 (and .def_203 (and .loc.14 (and .loc.8 (and .loc.7 (and .loc.6 (and .def_200 (and .def_134 (and .def_381 (and .def_524 (and .def_131 (and .def_378 (and .def_241 (and .def_128 (and .def_125 .def_563))))))))))))))))))))) (and .def_62 (and .def_186 (and .def_151 (and .def_164 (and .loc.13 (and .loc.12 (and .loc.11 (and .def_136 (and .loc.8 (and .loc.7 (and .def_200 (and .def_134 (and .def_381 (and .def_524 (and .def_131 (and .def_378 (and .def_241 (and .def_128 (and .def_125 (and .def_373 (and .def_122 (and .def_197 (and .def_192 (and .def_243 (and .def_119 (and .def_116 (and .def_113 (and .def_110 .def_585))))))))))))))))))))))))))))) (and .def_369 (and .def_62 (and .def_186 (and .def_151 (and .def_164 (and .loc.13 (and .loc.12 (and .loc.11 (and .def_136 (and .loc.8 (and .loc.7 (and .def_200 (and .def_134 (and .def_381 (and .def_524 (and .def_131 (and .def_378 (and .def_241 (and .def_128 (and .def_125 (and .def_373 .def_563)))))))))))))))))))))) (and .def_638 .def_640)) (and (or Q1_19 (and .def_392 (= .x.1358 (store D_33 N_33 (store .def_530 (+ V_33 .def_384) (select .def_644 (+ M_33 .def_384))))))) (and .def_405 (and .def_62 (and .def_186 (and .def_151 (and .def_164 (and .def_203 (and .loc.13 (and .loc.12 (and .def_136 (and .loc.8 (and .loc.7 (and .def_200 (and .def_134 (and .def_381 (and .def_524 (and .def_131 (and .def_378 (and .def_241 (and .def_128 (and .def_125 (and .def_122 (and .def_197 (and .def_192 (and .def_243 (and .def_119 (and .def_116 (and .def_113 (and .def_110 .def_651)))))))))))))))))))))))))))))) (and .def_497 (and .def_62 (and .def_58 (and .def_186 (and .def_151 (and .def_164 (and .def_203 (and .loc.13 (and .loc.12 (and .loc.8 (and .loc.6 (and .def_638 (and .def_200 (and .def_134 (and .def_381 (and .def_524 (and .def_131 (and .def_378 (and .def_241 (and .def_128 (and .def_125 .def_690)))))))))))))))))))))) (and .def_62 (and .def_58 (and .def_186 (and .def_151 (and .def_164 (and .def_158 (and .loc.13 (and .loc.11 (and .def_136 (and .loc.8 (and .def_638 (and .def_200 (and .def_134 (and .def_381 (and .def_524 (and .def_131 (and .def_378 (and .def_241 (and .def_128 (and .def_125 (and .def_373 (and .def_122 (and .def_197 (and .def_192 (and .def_243 (and .def_119 (and .def_116 (and .def_113 (and .def_110 (and .def_585 .def_640))))))))))))))))))))))))))))))) (and .def_369 (and .def_62 (and .def_58 (and .def_186 (and .def_151 (and .def_164 (and .def_158 (and .loc.13 (and .loc.11 (and .def_136 (and .loc.8 (and .def_638 (and .def_200 (and .def_134 (and .def_381 (and .def_524 (and .def_131 (and .def_378 (and .def_241 (and .def_128 (and .def_125 (and .def_373 .def_690))))))))))))))))))))))) (and .def_768 .def_770)) (and (or Q1_19 (and .def_392 (= .x.1358 (store D_33 W_33 (store .def_644 (+ M_33 .def_384) (select .def_210 (+ .def_384 I1_33))))))) (and .def_405 (and .def_62 (and .def_58 (and .def_186 (and .def_151 (and .def_164 (and .def_158 (and .def_203 (and .loc.13 (and .def_136 (and .loc.8 (and .def_638 (and .def_200 (and .def_134 (and .def_381 (and .def_524 (and .def_131 (and .def_378 (and .def_241 (and .def_128 (and .def_125 (and .def_122 (and .def_197 (and .def_192 (and .def_243 (and .def_119 (and .def_116 (and .def_113 (and .def_110 (and .def_640 .def_651)))))))))))))))))))))))))))))))) (and .def_497 (and .def_60 (and .def_62 (and .def_186 (and .def_151 (and .def_164 (and .def_158 (and .def_203 (and .loc.13 (and .loc.7 (and .loc.6 (and .def_768 (and .def_638 (and .def_200 (and .def_134 (and .def_381 (and .def_524 (and .def_131 (and .def_378 (and .def_241 (and .def_128 (and .def_125 .def_823))))))))))))))))))))))) (and .def_60 (and .def_62 (and .def_186 (and .def_151 (and .def_164 (and .def_161 (and .loc.12 (and .loc.11 (and .def_136 (and .loc.7 (and .def_768 (and .def_638 (and .def_200 (and .def_134 (and .def_381 (and .def_524 (and .def_131 (and .def_378 (and .def_241 (and .def_128 (and .def_125 (and .def_373 (and .def_122 (and .def_197 (and .def_192 (and .def_243 (and .def_119 (and .def_116 (and .def_113 (and .def_110 (and .def_640 (and .def_526 (and .def_449 .def_770)))))))))))))))))))))))))))))))))) (and (or Q1_19 .def_881) (and .def_60 (and .def_62 (and .def_186 (and .def_151 (and .def_164 (and .def_161 (and .loc.12 (and .loc.11 (and .def_136 (and .loc.7 (and .def_768 (and .def_638 (and .def_200 (and .def_134 (and .def_381 (and .def_524 (and .def_131 (and .def_378 (and .def_241 (and .def_128 (and .def_125 (and .def_373 .def_823)))))))))))))))))))))))) (and (= S_33 .x.1373) (and (= L_33 .x.1366) (= O_33 .x.1369)))) (and (or Q1_19 (and (= .x.1358 (store D_33 F1_33 (store .def_210 (+ (* 4 O_33) I1_33) L_33))) (and (<= (- 2147483648) L_33) (and (<= L_33 2147483647) (not .def_881))))) (and (or P1_33 (= (+ O_33 (* (- 1) .x.1369)) (- 1))) (and .def_60 (and .def_62 (and .def_186 (and .def_151 (and .def_164 (and .def_161 (and .def_203 (and .loc.12 (and .def_136 (and .loc.7 (and .def_768 (and .def_638 (and .def_200 (and .def_134 (and .def_381 (and .def_524 (and .def_131 (and .def_378 (and .def_241 (and .def_128 (and .def_125 (and .def_373 (and .def_122 (and .def_197 (and .def_192 (and .def_243 (and .def_119 (and .def_116 (and .def_113 (and .def_110 (and .def_640 (and .def_526 (and .def_254 .def_770)))))))))))))))))))))))))))))))))))) (and (= J_33 .x.1364) (and (= F_33 .x.1360) (= H_33 .x.1362)))) (and (or Q1_19 (and (and (= .x.1364 0) (= .x.1360 0)) (= Q1_0 (store B_33 0 0)))) (and (or P1_33 (and (and (and (and (and (and (and (and (and (and (and (and (and (and (and (and (and (and (and (and (and (and (not (<= .x.1355 .x.1377)) (not (<= .x.1355 .x.1368))) (not (<= .x.1355 .x.1378))) (not (<= .x.1355 .x.1386))) (not (<= .x.1355 .x.1385))) (= .x.1367 0)) (= .x.1369 0)) (= .x.1371 0)) (= .x.1376 0)) (not (= .x.1378 0))) (= .x.1389 0)) (not (= .x.1385 0))) (= .x.1383 0)) (not (= .x.1368 0))) (not (= .x.1377 0))) (not (= .x.1386 0))) (= (select Q1_0 .x.1386) 0)) (= (select .def_1033 .x.1368) 0)) (= (select .def_1038 .x.1385) 0)) (= (select .def_1032 .x.1377) 0)) (= (select .def_1037 .x.1378) 0)) (= .x.1362 (store (store (store (store (store H_33 .x.1386 400000) .x.1377 400000) .x.1368 400000) .x.1378 400000) .x.1385 400000))) (= .x.1356 (store .def_1038 .x.1385 1)))) (and .def_60 (and .def_62 (and .def_58 (and .def_186 (and .def_151 (and .def_164 (and .def_161 (and .def_203 (and .loc.12 (and .loc.6 (and .def_200 (and .def_119 (and .def_194 .def_375)))))))))))))))))))))))))))))))))))))))))))))))))))))))))))))))))))))))))))))))))))))))))))))))) (state |.x.1355| |.x.1356| |.x.1357| |.x.1358| |.x.1359| |.x.1360| |.x.1361| |.x.1362| |.x.1363| |.x.1364| |.x.1365| |.x.1366| |.x.1367| |.x.1368| |.x.1369| |.x.1370| |.x.1371| |.x.1372| |.x.1373| |.x.1374| |.x.1375| |.x.1376| |.x.1377| |.x.1378| |.x.1379| |.x.1380| |.x.1381| |.x.1382| |.x.1383| |.x.1384| |.x.1385| |.x.1386| |.x.1387| |.x.1388| |.x.1389| |.x.1390| |.x.1391| |.x.1392| |.x.1393| |.x.1394| |.x.1395| |P1_33| |.loc.11| |.loc.12| |.loc.13| |.loc.14| |.loc.15| |.xtv.1|))))
(assert (forall ((|A_33| Int) (|B_33| (Array Int Int)) (|C_33| (Array Int Int)) (|D_33| (Array Int Int)) (|E_33| (Array Int Int)) (|F_33| Int) (|G_33| Int) (|H_33| (Array Int Int)) (|I_33| (Array Int Int)) (|J_33| Int) (|K_33| Int) (|L_33| Int) (|M_33| Int) (|N_33| Int) (|O_33| Int) (|P_33| Int) (|Q_33| Int) (|R_33| Int) (|S_33| Int) (|T_33| Int) (|U_33| Int) (|V_33| Int) (|W_33| Int) (|X_33| Int) (|Y_33| Int) (|Z_33| Int) (|A1_33| Int) (|B1_33| Int) (|C1_33| Int) (|D1_33| Int) (|E1_33| Int) (|F1_33| Int) (|G1_33| Int) (|H1_33| Int) (|I1_33| Int) (|J1_33| Int) (|K1_33| Int) (|L1_33| Int) (|M1_33| Int) (|N1_33| Int) (|O1_33| Int) (|Q1_19| Bool) (|.loc.6| Bool) (|.loc.7| Bool) (|.loc.8| Bool) (|.loc.9| Bool) (|.loc.10| Bool) (|Q1_0| (Array Int Int)) (|.x.1365| Int) (|.x.1363| (Array Int Int)) (|.x.1361| Int) (|.x.1359| (Array Int Int)) (|.x.1355| Int) (|.x.1357| (Array Int Int)) (|.x.1356| (Array Int Int)) (|P1_33| Bool) (|.x.1367| Int) (|.x.1368| Int) (|.x.1371| Int) (|.x.1376| Int) (|.x.1377| Int) (|.x.1378| Int) (|.x.1379| Int) (|.x.1383| Int) (|.x.1385| Int) (|.x.1386| Int) (|.x.1389| Int) (|.x.1392| Int) (|.loc.15| Bool) (|.loc.12| Bool) (|.loc.13| Bool) (|.loc.14| Bool) (|.x.1381| Int) (|.x.1370| Int) (|.x.1382| Int) (|.x.1393| Int) (|.loc.11| Bool) (|.x.1387| Int) (|.x.1380| Int) (|.x.1384| Int) (|.x.1358| (Array Int Int)) (|.x.1388| Int) (|.x.1391| Int) (|.x.1390| Int) (|.x.1374| Int) (|.x.1394| Int) (|.x.1375| Int) (|.x.1395| Int) (|.x.1372| Int) (|.x.1373| Int) (|.x.1366| Int) (|.x.1369| Int) (|.x.1364| Int) (|.x.1360| Int) (|.x.1362| (Array Int Int)) (|.xtv.1| (Array Int Int))) (=> (state |A_33| |B_33| |C_33| |D_33| |E_33| |F_33| |G_33| |H_33| |I_33| |J_33| |K_33| |L_33| |M_33| |N_33| |O_33| |P_33| |Q_33| |R_33| |S_33| |T_33| |U_33| |V_33| |W_33| |X_33| |Y_33| |Z_33| |A1_33| |B1_33| |C1_33| |D1_33| |E1_33| |F1_33| |G1_33| |H1_33| |I1_33| |J1_33| |K1_33| |L1_33| |M1_33| |N1_33| |O1_33| |Q1_19| |.loc.6| |.loc.7| |.loc.8| |.loc.9| |.loc.10| |Q1_0|) (not (and Q1_19 (and .loc.10 (and (not .loc.9) (and (not .loc.8) (and (not .loc.7) (not .loc.6))))))))))
(check-sat)
